(set-info :smt-lib-version 2.6)
(set-logic QF_UFLRA)
(set-info :source |
MathSat group

|)
(set-info :category "random")
(set-info :status sat)
(declare-fun x0 () Real)
(declare-fun x1 () Real)
(declare-fun x2 () Real)
(declare-fun x3 () Real)
(declare-fun x4 () Real)
(declare-fun x5 () Real)
(declare-fun x6 () Real)
(declare-fun x7 () Real)
(declare-fun x8 () Real)
(declare-fun x9 () Real)
(declare-fun x10 () Real)
(declare-fun x11 () Real)
(declare-fun x12 () Real)
(declare-fun x13 () Real)
(declare-fun x14 () Real)
(declare-fun x15 () Real)
(declare-fun x16 () Real)
(declare-fun x17 () Real)
(declare-fun x18 () Real)
(declare-fun x19 () Real)
(declare-fun x20 () Real)
(declare-fun x21 () Real)
(declare-fun x22 () Real)
(declare-fun x23 () Real)
(declare-fun x24 () Real)
(declare-fun x25 () Real)
(declare-fun x26 () Real)
(declare-fun x27 () Real)
(declare-fun x28 () Real)
(declare-fun x29 () Real)
(declare-fun f0_1 (Real) Real)
(declare-fun f0_2 (Real Real) Real)
(declare-fun f0_3 (Real Real Real) Real)
(declare-fun f0_4 (Real Real Real Real) Real)
(declare-fun P0 () Bool)
(declare-fun P1 () Bool)
(declare-fun P2 () Bool)
(declare-fun P3 () Bool)
(declare-fun P4 () Bool)
(declare-fun P5 () Bool)
(declare-fun P6 () Bool)
(declare-fun P7 () Bool)
(declare-fun P8 () Bool)
(declare-fun P9 () Bool)
(declare-fun P10 () Bool)
(declare-fun P11 () Bool)
(declare-fun P12 () Bool)
(declare-fun P13 () Bool)
(declare-fun P14 () Bool)
(declare-fun P15 () Bool)
(declare-fun P16 () Bool)
(declare-fun P17 () Bool)
(declare-fun P18 () Bool)
(declare-fun P19 () Bool)
(declare-fun P20 () Bool)
(declare-fun P21 () Bool)
(declare-fun P22 () Bool)
(declare-fun P23 () Bool)
(declare-fun P24 () Bool)
(declare-fun P25 () Bool)
(declare-fun P26 () Bool)
(declare-fun P27 () Bool)
(declare-fun P28 () Bool)
(declare-fun P29 () Bool)
(assert (let ((?v_39 (* 6 x4))) (let ((?v_14 (distinct (- (- (* 17 x19) ?v_39) (* 23 x3)) 1)) (?v_74 (* 26 x11)) (?v_45 (* 15 x9))) (let ((?v_67 (distinct (+ (- ?v_45 (* 37 x21)) (* 42 x22)) 21)) (?v_75 (* 22 x12))) (let ((?v_85 (< (- (- (* 9 x3) ?v_75) (* 28 x1)) 5)) (?v_51 (< (- (+ (* 20 x3) (* 35 x22)) (* 7 x5)) 15)) (?v_86 (<= (- (- (* 2 x7) ?v_75) (* 18 x19)) 23)) (?v_48 (distinct (f0_2 x29 x28) (f0_2 x26 x21))) (?v_20 (distinct (f0_2 x19 x25) (f0_1 x5))) (?v_77 (= (f0_1 x0) x29)) (?v_60 (distinct (f0_2 x6 x20) x26)) (?v_0 (f0_1 x15))) (let ((?v_16 (= ?v_0 (f0_1 x9))) (?v_73 (f0_1 x14))) (let ((?v_29 (= ?v_73 (f0_2 x4 x17))) (?v_100 (= x2 (f0_2 x23 x0))) (?v_13 (= (f0_2 x11 x16) x21)) (?v_4 (= ?v_0 (f0_2 x27 x12))) (?v_41 (distinct (f0_1 x4) x22)) (?v_102 (distinct x15 x4)) (?v_69 (= (f0_2 x5 x16) (f0_2 x26 x18))) (?v_49 (distinct (f0_2 x10 x23) (f0_2 x24 x25))) (?v_88 (distinct ?v_73 (f0_2 x18 x10))) (?v_23 (f0_1 x3)) (?v_8 (= (f0_2 x2 x12) x0)) (?v_42 (= (f0_1 x6) (f0_2 x17 x13))) (?v_61 (distinct x12 (f0_2 x21 x15))) (?v_22 (= (f0_1 x29) x16)) (?v_118 (= x24 (f0_1 x26))) (?v_10 (= x14 x10)) (?v_11 (f0_1 x8))) (let ((?v_142 (= ?v_11 x29)) (?v_6 (= (f0_2 x8 x12) (f0_2 x16 x21))) (?v_91 (= x18 (f0_2 x29 x11))) (?v_125 (= (f0_1 x11) x0)) (?v_89 (= (f0_2 x26 x15) ?v_23)) (?v_24 (f0_1 x18))) (let ((?v_25 (= ?v_24 ?v_24)) (?v_12 (= (f0_1 x20) ?v_11)) (?v_143 (distinct (f0_1 x25) (f0_2 x26 x0))) (?v_68 (= x24 ?v_11)) (?v_21 (not P18)) (?v_17 (not P20)) (?v_63 (not ?v_60)) (?v_34 (not ?v_42)) (?v_152 (not P22))) (let ((?v_141 (or ?v_152 ?v_14)) (?v_140 (not ?v_16)) (?v_103 (not ?v_143)) (?v_2 (not ?v_49)) (?v_5 (not ?v_6)) (?v_157 (not P24)) (?v_130 (not ?v_142)) (?v_95 (not ?v_41)) (?v_99 (not P10)) (?v_28 (not ?v_10)) (?v_9 (not P3)) (?v_81 (not P13)) (?v_35 (not ?v_8)) (?v_38 (not P21)) (?v_40 (not P25)) (?v_15 (not ?v_12)) (?v_136 (not P29)) (?v_36 (not ?v_13)) (?v_122 (not ?v_14)) (?v_30 (not P14)) (?v_18 (not ?v_61)) (?v_37 (not ?v_4)) (?v_115 (not P0)) (?v_82 (not ?v_89)) (?v_133 (not (= x17 ?v_23))) (?v_57 (not ?v_25)) (?v_108 (not P28)) (?v_52 (not ?v_85)) (?v_114 (not P11)) (?v_65 (not ?v_77)) (?v_59 (not P6)) (?v_46 (not P15)) (?v_78 (not ?v_69)) (?v_79 (not P23)) (?v_109 (not P17)) (?v_117 (not ?v_67)) (?v_87 (not P16)) (?v_55 (not ?v_48)) (?v_54 (not P2)) (?v_137 (not P26)) (?v_72 (not ?v_29)) (?v_93 (not ?v_51)) (?v_124 (not ?v_86)) (?v_120 (not ?v_100)) (?v_97 (not P27)) (?v_92 (not (< (- (+ (* 37 x19) (* 15 x4)) (* 2 x18)) 3))) (?v_98 (not P19)) (?v_135 (not P8)) (?v_127 (not ?v_118)) (?v_146 (not ?v_88)) (?v_123 (not P9)) (?v_107 (not P1)) (?v_121 (not ?v_20)) (?v_158 (not ?v_68)) (?v_139 (not ?v_91)) (?v_132 (not P12)) (?v_154 (not ?v_22)) (?v_145 (not ?v_102)) (?v_151 (not P5)) (?v_138 (not ?v_125)) (?v_147 (not P7)) (?v_153 (not P4))) (let ((?v_156 (or ?v_91 ?v_154)) (?v_32 (< (+ (* 19 x10) (* 41 x3) (* 29 x20)) 8))) (let ((?v_50 (not ?v_32)) (?v_33 (< (+ (* 4 x11) (* 4 x28) (* 41 x4)) 31))) (let ((?v_106 (not ?v_33)) (?v_134 (<= (- (+ (* (- 1) x7) (* 34 x24)) (* 39 x26)) 36))) (let ((?v_31 (not ?v_134)) (?v_56 (< (+ (- (* (- 37) x28) (* 32 x18)) (* 34 x11)) (- 25))) (?v_1 (< (- (- (* 40 x10) (* 9 x5)) (* 20 x8)) (- 39)))) (let ((?v_27 (not ?v_1)) (?v_116 (< (- (+ (* (- 26) x20) (* 5 x18)) ?v_45) (- 12))) (?v_7 (<= (+ (* (- 9) x5) (* 39 x6) (* 17 x8)) (- 30)))) (let ((?v_83 (not ?v_7)) (?v_128 (< (- (- (* (- 16) x1) (* 30 x27)) (* 18 x9)) (- 11)))) (let ((?v_64 (not ?v_128)) (?v_129 (< (- (+ (* (- 38) x22) (* 6 x28)) (* 37 x29)) (- 7)))) (let ((?v_119 (not ?v_129)) (?v_66 (<= (+ (* 37 x11) (* 11 x2)) (- 35)))) (let ((?v_58 (not ?v_66)) (?v_76 (< (- (- (* (- 30) x0) (* 14 x16)) (* 11 x21)) (- 20)))) (let ((?v_3 (not ?v_76)) (?v_104 (= (+ (- (* (- 19) x14) (* 29 x14)) (* 13 x5)) 5)) (?v_26 (<= (- (- (* 5 x24) (* 25 x11)) (* 12 x24)) (- 32)))) (let ((?v_96 (not ?v_26))) (let ((?v_150 (or ?v_96 ?v_9)) (?v_110 (<= (+ (* 25 x22) (* 26 x27) (* 21 x14)) (- 28))) (?v_113 (< (- (- (* 15 x22) (* 20 x25)) (* 16 x29)) (- 6)))) (let ((?v_71 (not ?v_113)) (?v_43 (<= (- (- (* (- 10) x3) 0) (* 18 x12)) (- 28)))) (let ((?v_70 (not ?v_43)) (?v_19 (< (- (- (* (- 18) x13) (* 18 x17)) (* 24 x6)) 16)) (?v_101 (= (- (+ (* (- 29) x9) ?v_74) (* 36 x5)) (- 43)))) (let ((?v_84 (not ?v_101)) (?v_148 (not ?v_19)) (?v_53 (< (- (- (* 6 x23) (* 7 x2)) ?v_39) (- 20)))) (let ((?v_62 (not ?v_53)) (?v_47 (<= (- (- (* (- 3) x14) (* 36 x23)) (* 17 x28)) 35))) (let ((?v_44 (not ?v_47)) (?v_80 (< (+ (- ?v_74 (* 11 x9)) (* 8 x8)) (- 1)))) (let ((?v_90 (not ?v_80)) (?v_94 (< (+ (* (- 21) x26) (* 11 x24) (* 5 x5)) (- 4)))) (let ((?v_111 (not ?v_94)) (?v_126 (< (+ (- (* (- 31) x12) (* 40 x28)) (* 19 x6)) (- 14))) (?v_105 (< (- (+ (* 12 x27) (* 24 x2)) (* 36 x26)) (- 19))) (?v_112 (not ?v_104))) (let ((?v_131 (not ?v_105)) (?v_149 (not ?v_116)) (?v_144 (not ?v_126)) (?v_155 (not ?v_110))) (and (and (and (and (and (and (and (and (and (and (and (and (and (and (and (and (and (and (and (and (and (and (and (and (and (and (and (and (and (and (and (and (and (and (and (and (and (and (and (and (and (and (and (and (and (and (and (and (and (and (and (and (and (and (and (and (and (and (and (and (and (and (and (and (and (and (and (and (and (and (and (and (and (and (and (and (and (and (and (and (and (and (and (and (and (and (and (and (and (and (and (and (and (and (and (and (and (and (and (and (and (and (and (and (and (and (and (and (and (and (and (and (and (and (and (and (and (and (and (and (and (and (and (and (and (and (and (and (and (and (and (and (and (and (and (and (and (and (and (and (and (and (and (and (and (and (and (and (and (and (and (and (and (and (and (and (and (and (and (and (and (and (and (and (and (and (and (and (and (and (and (and (and (and (and (and (and (and (and (and (and (and (and (and (and (and (and (and (and (and (and (and (and (and (and (and (and (and (and (and (and (and (and (and (and (and (and (and (and (and (and (and (and (and (and (and (and (and (and (and (and (and (and (and (and (and (and (and (and (and (and (and (and (and (and (and (and (and (and (and (and (and (and (and (and (and (and (and (and (and (and (and (and (and (and (and (and (and (and (and (and (and (and (and (and (and (and (and (and (and (and (and (and (and (and (and (and (and (and (and (and (and (and (and (and (and (and (and (and (and (and (and (and (and (and (and (and (and (and (and (and (and (and (and (and (and (and (and (and (and (and (and (and (and (and (and (and (and (and (and (and (and (and (and (and (and (and (and (and (and (and (and (and (and (and (and (and (and (and (and (and (and (and (and (and (and (and (and (and (and (and (and (and (and (and (and (and (and (and (or (or ?v_21 ?v_31) ?v_125) (or (or ?v_56 ?v_17) ?v_27)) (or (or ?v_4 ?v_63) ?v_34)) (or ?v_141 ?v_140)) (or (or ?v_1 ?v_103) ?v_116)) (or (or ?v_8 ?v_83) P26)) (or (or ?v_2 ?v_51) ?v_5)) (or (or ?v_157 ?v_130) ?v_2)) (or (or ?v_20 ?v_64) P26)) (or (or P6 ?v_29) ?v_13)) (or (or P29 ?v_119) ?v_95)) (or (or ?v_58 ?v_99) ?v_3)) (or (or ?v_3 P2) ?v_4)) (or (or ?v_22 ?v_91) P13)) (or (or ?v_28 P19) ?v_5)) (or (or ?v_104 ?v_6) P23)) (or (or ?v_9 ?v_81) ?v_7)) (or (or ?v_35 ?v_38) P12)) (or ?v_150 ?v_10)) (or (or ?v_110 P11) ?v_40)) (or (or ?v_71 ?v_12) P24)) (or (or ?v_9 ?v_70) ?v_19)) (or (or ?v_15 ?v_136) P3)) (or (or ?v_36 ?v_122) ?v_15)) (or (or ?v_16 ?v_30) ?v_17)) (or (or ?v_18 ?v_18) ?v_19)) (or (or ?v_15 ?v_20) ?v_37)) (or (or ?v_21 ?v_17) ?v_22)) (or (or P29 P18) ?v_84)) (or (or ?v_148 ?v_17) ?v_115)) (or (or ?v_82 ?v_7) ?v_48)) (or (or ?v_133 ?v_57) ?v_50)) (or (or ?v_25 ?v_16) ?v_68)) (or (or P11 ?v_26) ?v_21)) (or (or ?v_108 ?v_27) ?v_52)) (or (or ?v_28 ?v_10) ?v_114)) (or (or ?v_29 ?v_30) ?v_33)) (or (or ?v_65 ?v_31) P27)) (or (or P21 ?v_32) P19)) (or (or ?v_4 ?v_106) ?v_59)) (or (or P22 ?v_34) ?v_17)) (or (or ?v_46 ?v_35) ?v_6)) (or (or ?v_36 P22) P20)) (or (or ?v_37 ?v_18) P12)) (or (or ?v_78 ?v_38) ?v_62)) (or (or ?v_40 ?v_10) ?v_41)) (or (or ?v_6 P2) ?v_42)) (or (or ?v_79 ?v_19) ?v_44)) (or (or P9 ?v_31) P21)) (or (or ?v_43 ?v_109) ?v_44)) (or (or ?v_117 ?v_38) ?v_87)) (or (or P11 ?v_46) ?v_47)) (or (or P5 ?v_55) ?v_15)) (or (or ?v_54 ?v_49) ?v_50)) (or (or ?v_51 ?v_52) ?v_48)) (or (or ?v_53 ?v_54) ?v_55)) (or (or ?v_18 P20) ?v_22)) (or (or ?v_48 ?v_56) ?v_49)) (or (or ?v_57 P12) ?v_58)) (or (or ?v_59 P6) ?v_60)) (or (or P26 ?v_137) ?v_61)) (or (or ?v_62 ?v_63) ?v_64)) (or (or ?v_65 ?v_72) ?v_66)) (or (or ?v_35 ?v_22) ?v_67)) (or (or ?v_27 ?v_68) ?v_10)) (or (or P10 ?v_15) ?v_69)) (or (or P14 P4) ?v_70)) (or (or P5 ?v_102) P16)) (or (or P12 ?v_8) P13)) (or (or ?v_43 P9) ?v_20)) (or (or ?v_18 ?v_3) ?v_71)) (or (or ?v_48 ?v_72) ?v_51)) (or (or ?v_88 ?v_93) ?v_80)) (or (or ?v_124 ?v_76) ?v_77)) (or (or ?v_54 ?v_8) P11)) (or (or ?v_78 ?v_9) ?v_120)) (or (or ?v_30 ?v_61) ?v_79)) (or (or ?v_90 ?v_43) ?v_81)) (or (or ?v_34 ?v_111) ?v_35)) (or (or ?v_82 ?v_80) ?v_83)) (or (or ?v_5 ?v_84) ?v_85)) (or (or ?v_69 P8) ?v_30)) (or (or ?v_97 ?v_71) ?v_86)) (or (or ?v_61 ?v_87) ?v_37)) (or (or ?v_72 ?v_92) ?v_76)) (or (or ?v_56 ?v_64) ?v_68)) (or (or ?v_46 ?v_88) ?v_64)) (or (or ?v_89 P23) ?v_7)) (or (or ?v_90 P29) P11)) (or (or ?v_76 ?v_126) ?v_26)) (or (or ?v_67 ?v_16) ?v_65)) (or (or ?v_82 ?v_91) ?v_92)) (or (or ?v_29 ?v_88) ?v_93)) (or (or ?v_98 ?v_53) ?v_35)) (or (or P21 P9) ?v_135)) (or (or P13 ?v_1) ?v_94)) (or (or ?v_82 ?v_92) ?v_47)) (or (or ?v_95 ?v_96) ?v_47)) (or (or P22 ?v_22) ?v_127)) (or (or ?v_78 ?v_97) P7)) (or (or ?v_91 ?v_30) ?v_69)) (or (or ?v_146 P26) ?v_21)) (or (or ?v_69 ?v_34) ?v_35)) (or (or ?v_4 P12) ?v_8)) (or (or ?v_123 ?v_62) ?v_46)) (or (or ?v_97 ?v_98) ?v_79)) (or (or ?v_99 ?v_22) ?v_78)) (or (or ?v_89 ?v_87) ?v_48)) (or (or ?v_60 ?v_59) P20)) (or (or ?v_46 ?v_71) P19)) (or (or ?v_91 ?v_105) ?v_51)) (or (or ?v_41 ?v_100) ?v_101)) (or (or ?v_102 ?v_56) ?v_103)) (or (or ?v_52 ?v_107) ?v_97)) (or (or ?v_104 ?v_112) ?v_29)) (or (or P16 ?v_33) ?v_131)) (or (or ?v_84 ?v_19) ?v_105)) (or (or ?v_14 ?v_59) ?v_106)) (or (or ?v_6 ?v_57) ?v_54)) (or (or ?v_69 ?v_41) ?v_107)) (or (or P3 ?v_3) ?v_108)) (or (or ?v_121 ?v_38) ?v_58)) (or (or P15 ?v_49) ?v_109)) (or (or ?v_30 ?v_80) ?v_158)) (or (or P15 ?v_98) ?v_37)) (or (or P22 ?v_12) P21)) (or (or ?v_20 ?v_110) ?v_29)) (or (or P10 ?v_30) ?v_72)) (or (or ?v_68 ?v_83) ?v_111)) (or (or ?v_41 ?v_76) ?v_107)) (or (or P3 ?v_64) P25)) (or (or ?v_112 ?v_32) ?v_139)) (or (or ?v_82 ?v_3) P5)) (or (or ?v_4 ?v_56) ?v_51)) (or (or ?v_16 ?v_104) ?v_18)) (or (or ?v_70 ?v_53) ?v_97)) (or (or ?v_113 ?v_114) P12)) (or (or ?v_115 ?v_17) ?v_54)) (or (or ?v_3 ?v_149) ?v_108)) (or (or ?v_55 ?v_57) ?v_68)) (or (or ?v_18 ?v_35) ?v_19)) (or (or ?v_61 ?v_117) ?v_118)) (or (or ?v_52 P17) P16)) (or (or ?v_80 ?v_119) ?v_13)) (or (or ?v_120 ?v_121) ?v_132)) (or (or ?v_10 ?v_110) ?v_122)) (or (or P18 ?v_110) ?v_71)) (or (or ?v_121 ?v_60) ?v_80)) (or (or ?v_44 P16) ?v_61)) (or (or ?v_71 P14) ?v_34)) (or (or ?v_117 P12) ?v_88)) (or (or ?v_7 ?v_123) ?v_103)) (or (or ?v_40 ?v_124) ?v_125)) (or (or ?v_65 ?v_30) ?v_71)) (or (or ?v_144 ?v_101) ?v_63)) (or (or ?v_27 ?v_125) ?v_127)) (or (or ?v_114 ?v_4) ?v_9)) (or (or P16 ?v_96) ?v_7)) (or (or ?v_128 ?v_61) P3)) (or (or ?v_27 ?v_17) ?v_48)) (or (or ?v_113 ?v_69) ?v_37)) (or (or ?v_129 P5) ?v_78)) (or (or ?v_154 ?v_37) ?v_53)) (or (or ?v_46 ?v_79) ?v_66)) (or (or P12 ?v_30) ?v_145)) (or (or ?v_130 ?v_26) ?v_131)) (or (or ?v_91 ?v_72) ?v_132)) (or (or P16 P5) ?v_133)) (or (or P11 ?v_134) ?v_97)) (or (or ?v_28 ?v_22) ?v_42)) (or (or ?v_124 ?v_131) ?v_13)) (or (or ?v_98 P15) ?v_94)) (or (or ?v_151 ?v_15) P2)) (or (or ?v_96 P1) ?v_83)) (or (or ?v_42 ?v_135) ?v_107)) (or (or ?v_110 P9) P23)) (or (or ?v_83 ?v_136) ?v_51)) (or (or P16 ?v_55) ?v_40)) (or (or ?v_138 ?v_100) ?v_81)) (or (or ?v_47 ?v_30) P5)) (or (or ?v_29 P4) ?v_90)) (or (or P24 ?v_61) P12)) (or (or ?v_90 ?v_66) P2)) (or (or ?v_16 ?v_47) P16)) (or (or ?v_6 P27) ?v_59)) (or (or ?v_137 ?v_29) ?v_134)) (or (or ?v_60 P14) P26)) (or (or ?v_63 ?v_105) ?v_62)) (or (or ?v_113 ?v_51) ?v_116)) (or (or P21 ?v_138) P18)) (or (or ?v_82 ?v_49) ?v_110)) (or (or ?v_56 ?v_133) ?v_76)) (or (or ?v_71 ?v_54) P29)) (or (or ?v_110 ?v_25) ?v_139)) (or (or ?v_120 ?v_129) ?v_83)) (or (or P11 ?v_140) ?v_19)) (or (or ?v_123 P16) ?v_36)) (or (or ?v_138 ?v_129) ?v_109)) (or (or ?v_63 ?v_125) ?v_81)) (or (or ?v_12 ?v_7) ?v_81)) (or (or ?v_96 P5) P1)) (or (or ?v_100 P9) ?v_33)) (or (or ?v_90 ?v_61) ?v_119)) (or (or ?v_51 ?v_59) ?v_4)) (or (or ?v_43 ?v_84) ?v_94)) (or (or ?v_101 ?v_114) P9)) (or (or ?v_115 ?v_92) P16)) (or (or P22 P19) ?v_49)) (or (or ?v_115 ?v_13) ?v_26)) (or (or ?v_43 ?v_138) ?v_104)) (or (or P26 ?v_29) P8)) (or (or ?v_101 ?v_2) ?v_41)) (or (or ?v_109 ?v_62) P13)) (or (or ?v_22 ?v_133) ?v_139)) (or (or ?v_14 ?v_19) P19)) (or (or ?v_131 P18) P15)) (or ?v_141 P9)) (or (or ?v_142 ?v_89) ?v_92)) (or (or P11 P28) P25)) (or (or ?v_18 ?v_96) ?v_70)) (or (or ?v_4 ?v_17) ?v_80)) (or (or ?v_38 ?v_6) ?v_28)) (or (or ?v_85 ?v_13) ?v_37)) (or (or ?v_143 ?v_122) P26)) (or (or ?v_144 P1) ?v_92)) (or (or ?v_101 ?v_31) ?v_40)) (or (or ?v_46 ?v_47) ?v_41)) (or (or ?v_118 ?v_119) ?v_25)) (or (or ?v_147 ?v_17) ?v_31)) (or (or ?v_48 ?v_16) ?v_70)) (or (or ?v_130 P19) ?v_127)) (or (or ?v_58 ?v_61) ?v_120)) (or (or ?v_103 ?v_82) ?v_129)) (or (or ?v_16 ?v_12) ?v_127)) (or (or ?v_145 ?v_107) ?v_95)) (or (or ?v_146 ?v_37) ?v_145)) (or (or ?v_46 ?v_112) ?v_50)) (or (or ?v_147 ?v_40) ?v_26)) (or (or ?v_116 ?v_143) ?v_148)) (or (or ?v_40 ?v_77) P4)) (or (or P28 ?v_132) ?v_105)) (or (or ?v_123 ?v_59) ?v_149)) (or (or ?v_65 ?v_1) ?v_54)) (or (or ?v_72 ?v_66) ?v_118)) (or (or ?v_100 P20) P4)) (or (or ?v_153 ?v_57) P21)) (or (or ?v_149 ?v_85) P28)) (or (or ?v_17 ?v_26) ?v_133)) (or (or ?v_25 ?v_65) ?v_128)) (or (or ?v_54 ?v_36) ?v_28)) (or (or ?v_54 ?v_112) ?v_33)) (or (or ?v_135 ?v_43) P4)) (or (or ?v_87 ?v_78) P3)) (or (or ?v_82 ?v_106) P23)) (or (or ?v_86 ?v_100) ?v_133)) (or (or ?v_14 ?v_7) ?v_44)) (or (or ?v_54 ?v_77) ?v_46)) (or (or ?v_55 ?v_21) ?v_106)) (or (or ?v_34 ?v_44) P5)) (or (or ?v_54 ?v_26) ?v_106)) (or ?v_150 ?v_151)) (or (or P15 ?v_28) ?v_110)) (or (or ?v_110 ?v_42) ?v_97)) (or (or ?v_6 ?v_133) ?v_76)) (or (or ?v_28 ?v_152) ?v_122)) (or (or ?v_38 P7) ?v_40)) (or (or ?v_99 ?v_125) ?v_9)) (or (or P1 ?v_93) ?v_101)) (or (or ?v_148 ?v_117) ?v_151)) (or (or ?v_62 ?v_56) ?v_144)) (or (or ?v_58 ?v_95) ?v_110)) (or (or ?v_4 ?v_139) ?v_69)) (or (or ?v_81 ?v_47) ?v_79)) (or (or P13 ?v_86) ?v_65)) (or (or P5 ?v_134) ?v_77)) (or (or ?v_51 P5) ?v_8)) (or (or ?v_155 P1) ?v_54)) (or (or ?v_130 ?v_72) ?v_95)) (or (or ?v_153 ?v_27) ?v_139)) (or (or ?v_105 ?v_146) ?v_152)) (or (or ?v_117 ?v_130) ?v_9)) (or (or ?v_99 ?v_145) P7)) (or (or ?v_124 ?v_139) ?v_110)) (or (or ?v_153 ?v_120) P22)) (or (or ?v_61 ?v_65) ?v_32)) (or (or ?v_37 ?v_46) P29)) (or (or ?v_27 ?v_30) ?v_128)) (or (or ?v_41 ?v_145) ?v_5)) (or (or ?v_26 ?v_126) P13)) (or (or ?v_108 ?v_44) P2)) (or (or ?v_63 ?v_132) ?v_119)) (or (or ?v_44 ?v_63) ?v_96)) (or (or ?v_59 P14) ?v_99)) (or (or ?v_34 ?v_8) ?v_103)) (or (or ?v_88 ?v_58) ?v_131)) (or (or ?v_142 ?v_36) P26)) (or (or ?v_20 ?v_40) ?v_103)) (or (or ?v_94 ?v_50) ?v_125)) (or (or ?v_9 ?v_109) ?v_135)) (or (or P20 P21) ?v_113)) (or (or ?v_104 ?v_3) ?v_133)) (or (or ?v_82 ?v_128) ?v_139)) (or (or P19 ?v_12) ?v_135)) (or (or ?v_56 ?v_6) ?v_16)) (or (or ?v_21 ?v_82) ?v_119)) (or (or ?v_50 ?v_149) ?v_28)) (or (or ?v_104 ?v_136) ?v_4)) (or (or ?v_81 P14) ?v_143)) (or (or ?v_88 ?v_54) ?v_109)) (or (or ?v_117 P15) ?v_100)) (or (or P7 ?v_52) ?v_152)) (or (or ?v_124 ?v_54) ?v_78)) (or (or ?v_119 ?v_77) ?v_139)) (or (or ?v_117 ?v_90) ?v_83)) (or (or ?v_130 P15) ?v_98)) (or (or ?v_64 ?v_51) ?v_40)) (or (or ?v_13 P29) P5)) (or (or ?v_87 ?v_30) ?v_22)) (or (or P15 ?v_50) ?v_1)) (or (or P26 ?v_70) P14)) (or (or ?v_32 ?v_134) P26)) (or ?v_156 ?v_155)) (or (or ?v_53 ?v_154) P5)) (or (or ?v_110 ?v_108) ?v_56)) (or (or ?v_66 P19) ?v_142)) (or (or ?v_53 ?v_100) ?v_82)) (or (or ?v_153 ?v_139) P8)) (or (or ?v_25 ?v_111) ?v_56)) (or (or ?v_1 ?v_145) ?v_154)) (or (or P22 ?v_19) ?v_44)) (or (or ?v_4 P20) ?v_49)) (or (or ?v_77 ?v_9) ?v_83)) (or ?v_156 P1)) (or (or ?v_103 ?v_111) P7)) (or (or P8 ?v_7) ?v_69)) (or (or ?v_43 ?v_40) ?v_35)) (or (or ?v_85 ?v_81) ?v_71)) (or (or ?v_92 P5) ?v_117)) (or (or ?v_106 ?v_124) ?v_113)) (or (or P7 ?v_64) ?v_148)) (or (or P23 ?v_126) ?v_138)) (or (or P10 ?v_100) P15)) (or (or ?v_28 ?v_94) ?v_155)) (or (or ?v_43 P21) P4)) (or (or P8 ?v_106) ?v_51)) (or (or ?v_49 P12) ?v_80)) (or (or ?v_76 ?v_2) P16)) (or (or P28 ?v_152) ?v_10)) (or (or ?v_69 ?v_59) ?v_93)) (or (or ?v_128 ?v_87) ?v_31)) (or (or ?v_157 ?v_105) ?v_113)) (or (or ?v_12 ?v_154) ?v_20)) (or (or ?v_54 ?v_59) ?v_1)) (or (or P6 ?v_95) P18)) (or (or ?v_137 P9) ?v_109)) (or (or ?v_135 ?v_137) ?v_28)) (or (or ?v_129 ?v_158) ?v_58)) (or (or ?v_102 P18) ?v_63)) (or (or ?v_135 ?v_64) ?v_30)) (or (or ?v_117 ?v_46) P16))))))))))))))))))))))))))))))))
(check-sat)
(exit)
